20
1 0 93
2 0 48
2 1 34
3 0 48
3 1 91
3 2 44
4 0 56
4 1 24
4 2 2
4 3 33
5 0 87
5 1 37
5 2 82
5 3 47
5 4 19
6 0 19
6 1 70
6 2 9
6 3 97
6 4 16
6 5 26
7 0 93
7 1 100
7 2 61
7 3 80
7 4 55
7 5 19
7 6 85
8 0 32
8 1 85
8 2 64
8 3 34
8 4 68
8 5 5
8 6 21
8 7 17
9 0 87
9 1 93
9 2 3
9 3 18
9 4 61
9 5 43
9 6 96
9 7 21
9 8 60
10 0 72
10 1 90
10 2 64
10 3 22
10 4 24
10 5 27
10 6 94
10 7 48
10 8 51
10 9 30
11 0 93
11 1 48
11 2 72
11 3 77
11 4 23
11 5 85
11 6 16
11 7 45
11 8 64
11 9 65
11 10 23
12 0 36
12 1 86
12 2 91
12 3 59
12 4 49
12 5 60
12 6 78
12 7 45
12 8 84
12 9 92
12 10 85
12 11 37
13 0 63
13 1 52
13 2 23
13 3 88
13 4 23
13 5 18
13 6 35
13 7 83
13 8 18
13 9 73
13 10 70
13 11 26
13 12 18
14 0 98
14 1 81
14 2 29
14 3 5
14 4 76
14 5 30
14 6 22
14 7 4
14 8 97
14 9 82
14 10 87
14 11 100
14 12 2
14 13 11
15 0 87
15 1 11
15 2 43
15 3 50
15 4 38
15 5 44
15 6 22
15 7 76
15 8 60
15 9 45
15 10 44
15 11 95
15 12 78
15 13 3
15 14 99
16 0 59
16 1 85
16 2 96
16 3 56
16 4 64
16 5 74
16 6 69
16 7 27
16 8 74
16 9 7
16 10 95
16 11 48
16 12 93
16 13 76
16 14 50
16 15 79
17 0 79
17 1 65
17 2 2
17 3 8
17 4 48
17 5 40
17 6 6
17 7 36
17 8 49
17 9 4
17 10 44
17 11 49
17 12 82
17 13 6
17 14 62
17 15 31
17 16 91
18 0 85
18 1 78
18 2 56
18 3 74
18 4 90
18 5 76
18 6 67
18 7 65
18 8 14
18 9 11
18 10 36
18 11 98
18 12 23
18 13 80
18 14 55
18 15 58
18 16 67
18 17 38
19 0 7
19 1 64
19 2 13
19 3 73
19 4 17
19 5 60
19 6 37
19 7 48
19 8 82
19 9 88
19 10 52
19 11 99
19 12 22
19 13 88
19 14 73
19 15 34
19 16 10
19 17 37
19 18 40
